c ADVERSARIAL CNF: does a monotone circuit of size<=3 compute Parity_3?
c SAT => counterexample to lower bound claim
c UNSAT => lower bound survives adversarial test at k=3
c Circuit synthesis encoding for monotone
c n_inputs=3, max_gates=3
c encoding_mode=explicit 8 rows
c SAT = circuit exists, UNSAT = no such circuit
p cnf 126 610
1 2 0
-1 -2 0
7 8 9 0
-7 -8 0
-7 -9 0
-8 -9 0
10 11 12 0
-10 -11 0
-10 -12 0
-11 -12 0
3 4 0
-3 -4 0
13 14 15 16 0
-13 -14 0
-13 -15 0
-13 -16 0
-14 -15 0
-14 -16 0
-15 -16 0
17 18 19 20 0
-17 -18 0
-17 -19 0
-17 -20 0
-18 -19 0
-18 -20 0
-19 -20 0
5 6 0
-5 -6 0
21 22 23 24 25 0
-21 -22 0
-21 -23 0
-21 -24 0
-21 -25 0
-22 -23 0
-22 -24 0
-22 -25 0
-23 -24 0
-23 -25 0
-24 -25 0
26 27 28 29 30 0
-26 -27 0
-26 -28 0
-26 -29 0
-26 -30 0
-27 -28 0
-27 -29 0
-27 -30 0
-28 -29 0
-28 -30 0
-29 -30 0
-31 0
-39 0
-47 0
-7 -79 31 0
-7 79 -31 0
-8 -79 39 0
-8 79 -39 0
-9 -79 47 0
-9 79 -47 0
-10 -80 31 0
-10 80 -31 0
-11 -80 39 0
-11 80 -39 0
-12 -80 47 0
-12 80 -47 0
-1 -55 79 0
-1 -55 80 0
-1 -79 -80 55 0
-2 -55 79 80 0
-2 -79 55 0
-2 -80 55 0
-13 -95 31 0
-13 95 -31 0
-14 -95 39 0
-14 95 -39 0
-15 -95 47 0
-15 95 -47 0
-16 -95 55 0
-16 95 -55 0
-17 -96 31 0
-17 96 -31 0
-18 -96 39 0
-18 96 -39 0
-19 -96 47 0
-19 96 -47 0
-20 -96 55 0
-20 96 -55 0
-3 -63 95 0
-3 -63 96 0
-3 -95 -96 63 0
-4 -63 95 96 0
-4 -95 63 0
-4 -96 63 0
-21 -111 31 0
-21 111 -31 0
-22 -111 39 0
-22 111 -39 0
-23 -111 47 0
-23 111 -47 0
-24 -111 55 0
-24 111 -55 0
-25 -111 63 0
-25 111 -63 0
-26 -112 31 0
-26 112 -31 0
-27 -112 39 0
-27 112 -39 0
-28 -112 47 0
-28 112 -47 0
-29 -112 55 0
-29 112 -55 0
-30 -112 63 0
-30 112 -63 0
-5 -71 111 0
-5 -71 112 0
-5 -111 -112 71 0
-6 -71 111 112 0
-6 -111 71 0
-6 -112 71 0
-71 0
32 0
-40 0
-48 0
-7 -81 32 0
-7 81 -32 0
-8 -81 40 0
-8 81 -40 0
-9 -81 48 0
-9 81 -48 0
-10 -82 32 0
-10 82 -32 0
-11 -82 40 0
-11 82 -40 0
-12 -82 48 0
-12 82 -48 0
-1 -56 81 0
-1 -56 82 0
-1 -81 -82 56 0
-2 -56 81 82 0
-2 -81 56 0
-2 -82 56 0
-13 -97 32 0
-13 97 -32 0
-14 -97 40 0
-14 97 -40 0
-15 -97 48 0
-15 97 -48 0
-16 -97 56 0
-16 97 -56 0
-17 -98 32 0
-17 98 -32 0
-18 -98 40 0
-18 98 -40 0
-19 -98 48 0
-19 98 -48 0
-20 -98 56 0
-20 98 -56 0
-3 -64 97 0
-3 -64 98 0
-3 -97 -98 64 0
-4 -64 97 98 0
-4 -97 64 0
-4 -98 64 0
-21 -113 32 0
-21 113 -32 0
-22 -113 40 0
-22 113 -40 0
-23 -113 48 0
-23 113 -48 0
-24 -113 56 0
-24 113 -56 0
-25 -113 64 0
-25 113 -64 0
-26 -114 32 0
-26 114 -32 0
-27 -114 40 0
-27 114 -40 0
-28 -114 48 0
-28 114 -48 0
-29 -114 56 0
-29 114 -56 0
-30 -114 64 0
-30 114 -64 0
-5 -72 113 0
-5 -72 114 0
-5 -113 -114 72 0
-6 -72 113 114 0
-6 -113 72 0
-6 -114 72 0
72 0
-33 0
41 0
-49 0
-7 -83 33 0
-7 83 -33 0
-8 -83 41 0
-8 83 -41 0
-9 -83 49 0
-9 83 -49 0
-10 -84 33 0
-10 84 -33 0
-11 -84 41 0
-11 84 -41 0
-12 -84 49 0
-12 84 -49 0
-1 -57 83 0
-1 -57 84 0
-1 -83 -84 57 0
-2 -57 83 84 0
-2 -83 57 0
-2 -84 57 0
-13 -99 33 0
-13 99 -33 0
-14 -99 41 0
-14 99 -41 0
-15 -99 49 0
-15 99 -49 0
-16 -99 57 0
-16 99 -57 0
-17 -100 33 0
-17 100 -33 0
-18 -100 41 0
-18 100 -41 0
-19 -100 49 0
-19 100 -49 0
-20 -100 57 0
-20 100 -57 0
-3 -65 99 0
-3 -65 100 0
-3 -99 -100 65 0
-4 -65 99 100 0
-4 -99 65 0
-4 -100 65 0
-21 -115 33 0
-21 115 -33 0
-22 -115 41 0
-22 115 -41 0
-23 -115 49 0
-23 115 -49 0
-24 -115 57 0
-24 115 -57 0
-25 -115 65 0
-25 115 -65 0
-26 -116 33 0
-26 116 -33 0
-27 -116 41 0
-27 116 -41 0
-28 -116 49 0
-28 116 -49 0
-29 -116 57 0
-29 116 -57 0
-30 -116 65 0
-30 116 -65 0
-5 -73 115 0
-5 -73 116 0
-5 -115 -116 73 0
-6 -73 115 116 0
-6 -115 73 0
-6 -116 73 0
73 0
34 0
42 0
-50 0
-7 -85 34 0
-7 85 -34 0
-8 -85 42 0
-8 85 -42 0
-9 -85 50 0
-9 85 -50 0
-10 -86 34 0
-10 86 -34 0
-11 -86 42 0
-11 86 -42 0
-12 -86 50 0
-12 86 -50 0
-1 -58 85 0
-1 -58 86 0
-1 -85 -86 58 0
-2 -58 85 86 0
-2 -85 58 0
-2 -86 58 0
-13 -101 34 0
-13 101 -34 0
-14 -101 42 0
-14 101 -42 0
-15 -101 50 0
-15 101 -50 0
-16 -101 58 0
-16 101 -58 0
-17 -102 34 0
-17 102 -34 0
-18 -102 42 0
-18 102 -42 0
-19 -102 50 0
-19 102 -50 0
-20 -102 58 0
-20 102 -58 0
-3 -66 101 0
-3 -66 102 0
-3 -101 -102 66 0
-4 -66 101 102 0
-4 -101 66 0
-4 -102 66 0
-21 -117 34 0
-21 117 -34 0
-22 -117 42 0
-22 117 -42 0
-23 -117 50 0
-23 117 -50 0
-24 -117 58 0
-24 117 -58 0
-25 -117 66 0
-25 117 -66 0
-26 -118 34 0
-26 118 -34 0
-27 -118 42 0
-27 118 -42 0
-28 -118 50 0
-28 118 -50 0
-29 -118 58 0
-29 118 -58 0
-30 -118 66 0
-30 118 -66 0
-5 -74 117 0
-5 -74 118 0
-5 -117 -118 74 0
-6 -74 117 118 0
-6 -117 74 0
-6 -118 74 0
-74 0
-35 0
-43 0
51 0
-7 -87 35 0
-7 87 -35 0
-8 -87 43 0
-8 87 -43 0
-9 -87 51 0
-9 87 -51 0
-10 -88 35 0
-10 88 -35 0
-11 -88 43 0
-11 88 -43 0
-12 -88 51 0
-12 88 -51 0
-1 -59 87 0
-1 -59 88 0
-1 -87 -88 59 0
-2 -59 87 88 0
-2 -87 59 0
-2 -88 59 0
-13 -103 35 0
-13 103 -35 0
-14 -103 43 0
-14 103 -43 0
-15 -103 51 0
-15 103 -51 0
-16 -103 59 0
-16 103 -59 0
-17 -104 35 0
-17 104 -35 0
-18 -104 43 0
-18 104 -43 0
-19 -104 51 0
-19 104 -51 0
-20 -104 59 0
-20 104 -59 0
-3 -67 103 0
-3 -67 104 0
-3 -103 -104 67 0
-4 -67 103 104 0
-4 -103 67 0
-4 -104 67 0
-21 -119 35 0
-21 119 -35 0
-22 -119 43 0
-22 119 -43 0
-23 -119 51 0
-23 119 -51 0
-24 -119 59 0
-24 119 -59 0
-25 -119 67 0
-25 119 -67 0
-26 -120 35 0
-26 120 -35 0
-27 -120 43 0
-27 120 -43 0
-28 -120 51 0
-28 120 -51 0
-29 -120 59 0
-29 120 -59 0
-30 -120 67 0
-30 120 -67 0
-5 -75 119 0
-5 -75 120 0
-5 -119 -120 75 0
-6 -75 119 120 0
-6 -119 75 0
-6 -120 75 0
75 0
36 0
-44 0
52 0
-7 -89 36 0
-7 89 -36 0
-8 -89 44 0
-8 89 -44 0
-9 -89 52 0
-9 89 -52 0
-10 -90 36 0
-10 90 -36 0
-11 -90 44 0
-11 90 -44 0
-12 -90 52 0
-12 90 -52 0
-1 -60 89 0
-1 -60 90 0
-1 -89 -90 60 0
-2 -60 89 90 0
-2 -89 60 0
-2 -90 60 0
-13 -105 36 0
-13 105 -36 0
-14 -105 44 0
-14 105 -44 0
-15 -105 52 0
-15 105 -52 0
-16 -105 60 0
-16 105 -60 0
-17 -106 36 0
-17 106 -36 0
-18 -106 44 0
-18 106 -44 0
-19 -106 52 0
-19 106 -52 0
-20 -106 60 0
-20 106 -60 0
-3 -68 105 0
-3 -68 106 0
-3 -105 -106 68 0
-4 -68 105 106 0
-4 -105 68 0
-4 -106 68 0
-21 -121 36 0
-21 121 -36 0
-22 -121 44 0
-22 121 -44 0
-23 -121 52 0
-23 121 -52 0
-24 -121 60 0
-24 121 -60 0
-25 -121 68 0
-25 121 -68 0
-26 -122 36 0
-26 122 -36 0
-27 -122 44 0
-27 122 -44 0
-28 -122 52 0
-28 122 -52 0
-29 -122 60 0
-29 122 -60 0
-30 -122 68 0
-30 122 -68 0
-5 -76 121 0
-5 -76 122 0
-5 -121 -122 76 0
-6 -76 121 122 0
-6 -121 76 0
-6 -122 76 0
-76 0
-37 0
45 0
53 0
-7 -91 37 0
-7 91 -37 0
-8 -91 45 0
-8 91 -45 0
-9 -91 53 0
-9 91 -53 0
-10 -92 37 0
-10 92 -37 0
-11 -92 45 0
-11 92 -45 0
-12 -92 53 0
-12 92 -53 0
-1 -61 91 0
-1 -61 92 0
-1 -91 -92 61 0
-2 -61 91 92 0
-2 -91 61 0
-2 -92 61 0
-13 -107 37 0
-13 107 -37 0
-14 -107 45 0
-14 107 -45 0
-15 -107 53 0
-15 107 -53 0
-16 -107 61 0
-16 107 -61 0
-17 -108 37 0
-17 108 -37 0
-18 -108 45 0
-18 108 -45 0
-19 -108 53 0
-19 108 -53 0
-20 -108 61 0
-20 108 -61 0
-3 -69 107 0
-3 -69 108 0
-3 -107 -108 69 0
-4 -69 107 108 0
-4 -107 69 0
-4 -108 69 0
-21 -123 37 0
-21 123 -37 0
-22 -123 45 0
-22 123 -45 0
-23 -123 53 0
-23 123 -53 0
-24 -123 61 0
-24 123 -61 0
-25 -123 69 0
-25 123 -69 0
-26 -124 37 0
-26 124 -37 0
-27 -124 45 0
-27 124 -45 0
-28 -124 53 0
-28 124 -53 0
-29 -124 61 0
-29 124 -61 0
-30 -124 69 0
-30 124 -69 0
-5 -77 123 0
-5 -77 124 0
-5 -123 -124 77 0
-6 -77 123 124 0
-6 -123 77 0
-6 -124 77 0
-77 0
38 0
46 0
54 0
-7 -93 38 0
-7 93 -38 0
-8 -93 46 0
-8 93 -46 0
-9 -93 54 0
-9 93 -54 0
-10 -94 38 0
-10 94 -38 0
-11 -94 46 0
-11 94 -46 0
-12 -94 54 0
-12 94 -54 0
-1 -62 93 0
-1 -62 94 0
-1 -93 -94 62 0
-2 -62 93 94 0
-2 -93 62 0
-2 -94 62 0
-13 -109 38 0
-13 109 -38 0
-14 -109 46 0
-14 109 -46 0
-15 -109 54 0
-15 109 -54 0
-16 -109 62 0
-16 109 -62 0
-17 -110 38 0
-17 110 -38 0
-18 -110 46 0
-18 110 -46 0
-19 -110 54 0
-19 110 -54 0
-20 -110 62 0
-20 110 -62 0
-3 -70 109 0
-3 -70 110 0
-3 -109 -110 70 0
-4 -70 109 110 0
-4 -109 70 0
-4 -110 70 0
-21 -125 38 0
-21 125 -38 0
-22 -125 46 0
-22 125 -46 0
-23 -125 54 0
-23 125 -54 0
-24 -125 62 0
-24 125 -62 0
-25 -125 70 0
-25 125 -70 0
-26 -126 38 0
-26 126 -38 0
-27 -126 46 0
-27 126 -46 0
-28 -126 54 0
-28 126 -54 0
-29 -126 62 0
-29 126 -62 0
-30 -126 70 0
-30 126 -70 0
-5 -78 125 0
-5 -78 126 0
-5 -125 -126 78 0
-6 -78 125 126 0
-6 -125 78 0
-6 -126 78 0
78 0
